c Lingeling SAT Solver
c 
c Version ala b02aa1a04343558c4252b5f4a723be021964f652
c 
c Copyright (C) 2010-2012 Armin Biere JKU Linz Austria.
c All rights reserved.
c 
c released Sat Oct 13 14:05:26 CEST 2012
c compiled Sat Feb 16 02:48:12 EST 2013
c 
c gcc (Debian 4.4.5-8) 4.4.5
c -Wall -O3 -DNLGLOG -DNDEBUG -DNCHKSOL -DNLGLPICOSAT 
c Linux greencar2 2.6.32-5-amd64 x86_64
c 
c reading input file p29.cnf
c no embedded options
c found 'p cnf 232611 719692' header
c read 232611 variables, 719692 clauses, 1497519 literals in 0.0 seconds
c
c feature vars 232611
c feature lits.total 1497519
c feature lits.pos 798111
c feature lits.neg 699408
c feature clauses.total 719692
c feature clauses.unit 86807
c feature clauses.bin 507143
c feature clauses.trn 124342
c feature clauses.lrg 1400
c feature cog.val.min 1
c feature cog.val.avg 103642
c feature cog.val.max 223535
c feature cog.var.min 1
c feature cog.var.avg 116306
c feature cog.var.max 232610
c
c
c --abstime=0
c --acts=2
c --actavgmax=120
c --actstdmin=20
c --actstdmax=80
c --agile=23
c --bias=2
c --block=1
c --blkrtc=0
c --blkclslim=2000
c --blkocclim=2000
c --blkmaxeff=2147483647
c --blkmineff=10000000
c --blkreleff=20
c --card=0
c --cce=3
c --ccemaxeff=100000000
c --ccemineff=5000000
c --ccereleff=3
c --check=0
c --cgrclsr=1
c --cgrmaxority=20
c --cgrmaxeff=8000000
c --cgrmineff=200000
c --cgreleff=1
c --cgrexteq=1
c --cgrextand=1
c --cgrextunits=1
c --cgrextite=1
c --cgrextxor=1
c --cliff=1
c --cliffreleff=8
c --cliffmineff=10000000
c --cliffmaxeff=100000000
c --compact=0
c --decompose=1
c --defragint=10000000
c --defragfree=50
c --elim=1
c --elmrtc=0
c --elmblk=1
c --elmclslim=1000
c --elmocclim=1000
c --elmaxeff=100000000
c --elmineff=5000000
c --elmreleff=10
c --sleeponabort=0
c --exitonabort=0
c --flipping=1
c --flipint=2
c --flipdur=50
c --fliptop=1
c --force=0
c --gauss=1
c --gaussextrall=1
c --gaussmaxor=20
c --gaussexptrn=1
c --gaussmaxeff=50000000
c --gaussmineff=2000000
c --gaussreleff=2
c --gluescale=2
c --gluekeep=0
c --inprocessing=1
c --cintinc=10000
c --irrlim=20
c --lift=1
c --lftmaxeff=20000000
c --lftmineff=500000
c --lftreleff=6
c --lhbr=1
c --lkhd=1
c --clim=-1
c --mocint=1000
c --move=2
c --log=-1
c --otfs=1
c --phase=0
c --phaseneginit=0
c --plain=0
c --probe=1
c --prbasicmaxeff=100000000
c --prbasicmineff=1000000
c --prbasicreleff=10
c --prbasic=1
c --prbasicroundlim=9
c --queuemergelim=10000
c --queuefactor=833
c --queueinc=20
c --rmincpen=4
c --seed=0
c --smallirr=90
c --smallve=1
c --smallvevars=12
c --randec=1
c --randecint=1000
c --redfixed=0
c --redlbound=0
c --redlexpfac=10
c --redldoutfac=0
c --redloutinc=10000
c --redlinit=1000
c --redlinc=1000
c --redinoutinc=100
c --redlmininc=10
c --redlmaxinc=200
c --redlminrel=10
c --redlmaxrel=300
c --redlminabs=500
c --redlmaxabs=1000000
c --reduce=1
c --restart=2
c --restartint=5
c --rstinoutinc=110
c --simplify=1
c --simpdelay=100
c --simpen=4
c --sizepen=1000000
c --sizemaxpen=3
c --sortlits=0
c --syncint=111111
c --termint=122222
c --ternres=1
c --ternresrtc=0
c --trnrmineff=4000000
c --trnrmaxeff=40000000
c --trnreleff=10
c --transred=1
c --trdmineff=100000
c --trdmaxeff=2000000
c --trdreleff=10
c --unhide=1
c --unhdextstamp=1
c --unhdhbr=0
c --unhdmaxeff=20000000
c --unhdmineff=1000000
c --unhdreleff=4
c --unhdlnpr=3
c --unhdroundlim=5
c --verbose=1
c --witness=1
c [limits] no conflict limit
c [limits] simplification delayed by 100 to 100 conflicts
c 
c  seconds         irredundant          redundant clauses agility   height
c          variables clauses conflicts large binary ternary    glue         MB
c 
c *    0.0  127942   535019         0       0      0     0  65  0.0   0.0   42
c [cut-width] 177696, max 277835, min4 116552 at 75%, min10 35345 at 89%
c [decision-order] bias 1, old 1
c [queue-schedule-all-variables]
c s    0.0  127942   535019         0       0      0     0  65  0.0   0.0   42
c [simplification-1] limit hit at 100 conflicts
c [simplification-1] simplification penalty of 4
c [ternres-1] limit 4000000 with penalty 0 = 0 + 0
c [ternres-1] all 127942 free variables schedulable
c [ternres-1] 0 ternary resolvents (0 bin, 0 trn)
c [ternres-1] 29252 variables remain 23% (98690 retained)
c [gauss-1] limit 2000000 penalty 0 = 0 + 0
c [gauss-1] extracted 167526 xors of average arity 2.0
c [gauss-1] connected 335054 occurrences of 94767 variables (average 3.5)
c [gauss-1] limit 2000000 penalty 0 = 0 + 0
c [gauss-1] exported 0 unary, 0 binary and 0 ternary equations
c G    0.6  127942   512124       100     100      0     0  76  4.7 420.5   28
c d    0.8   58809   265716       100     100      0     0  76  4.7 420.5   21
c [basicprobe-1] limit 1000000 penalty 0 = 0 + 0
c [basicprobe-1-0] 4414 probes remain 8% after last round
c [basicprobe-1-0] 1 units = 1 failed (100%) + 0 lifted (0%)
c [basicprobe-1-0] removed 1 variables, found 6688 hbrs
c p    0.8   58808   265716       100     100   6688     0  76  4.7 420.5   25
c [cgrclsr-1] limit 200000 penalty 0 = 0 + 0
c [cgrclsr-1] all 58808 free variables schedulable
c [cgrclsr-1] fully completed congruence closure
c [lift-1] limit 500000 with penalty 0 = 0 + 0
c [lift-1] using 58808 probes 100%
c [lift-1] 58778 variables remain 100% (30 retained)
c [cliff-1] limit of 10000000 steps penalty 0 = 0 + 0
c [cliff-1] failed 0, lifted 3
c K    1.4   58805   265711       100     100  21785     0  76  4.7 420.5   25
c [unhide-1] limit 1000000 with penalty 0 = 0 + 0
c [unhide-1-1] 0 units, 1 failed, 20160 tauts, 0 hbrs, 62 literals
c u    1.5   58802   245537       100     100  21785     0  76  4.7 420.5   26
c [transred-1] limit 100000 with penalty 0 = 0 + 0
c t    1.5   58802   245537       100     100  21775     0  76  4.7 420.5   26
c [block-1] scheduling all variables this time
c [block-1] scheduled 58802 variables 100%
c [block-1] limit of 10000000 steps penalty 0 = 0 + 0
c [block-1] fully completed blocked clause elimination
c [block-1] transition to [ all 0 rem 0 ] state
c [block-1] eliminated 4800 blocked clauses
c k    1.7   58802   240723       100     100  21775  4800  76  4.7 420.5   21
c [cce-1] scheduling all variables this time
c [cce-1] limit of 10000000 steps penalty 0 = 0 + 0
c [cce-1] incomplete covered clause elimination 52888 not tried 90%
c [cce-1] transition to [ all 1 rem 1 ] state
c [cce-1] eliminated 72 covered clauses
c E    2.1   58801   240651       100     100  26587  4800  76  4.7 420.5   21
c [elim-1] scheduling all variables this time
c [elim-1] scheduled 58801 variables 100%
c [elim-1] limit of 5000000 steps penalty 0 = 0 + 0
c [elim-1] incomplete variable elimination 43852 not tried 75%
c [elim-1] transition to [ all 1 rem 1 ] state
c [elim-1] eliminated 6346 = 11% variables out of 58801
c e    3.0   52455   236943       100      38   8964   616  76  4.7 420.5   21
c [phase-1] phase bias: 1612 positive 14%, 9698 negative 86%
c [simplification-1] removed 75487 variables 59%
c [simplification-1] limit increments divided by 30
c [simplification-1] arithmetic increase of conflict limit interval by 333
c [simplification-1] new irredundant limit 2344965
c [simplification-1] new conflict limit 433
c [simplification-1] simplification penalty reduced to 3
c [simplification-2] limit hit at 433 conflicts
c [simplification-2] simplification penalty of 3
c [ternres-2] limit 2000000 with penalty 1 = 1 + 0
c [ternres-2] 11944 schedulable variables 23%
c [ternres-2] 6 ternary resolvents (0 bin, 6 trn)
c [ternres-2] fully completed ternary resolution
c T    3.1   52455   236943       433     368   8964   625  23  9.2 869.0   26
c [gauss-2] limit 1000000 penalty 1 = 1 + 0
c [gauss-2] extracted 467 xors of average arity 3.0
c [gauss-2] connected 1401 occurrences of 816 variables (average 1.7)
c [gauss-2] limit 1000000 penalty 1 = 1 + 0
c [gauss-2] fully completed
c [gauss-2] exported 0 unary, 0 binary and 0 ternary equations
c G    3.2   52455   236943       433     368   8964   625  23  9.2 869.0   21
c [basicprobe-2] limit 1000000 penalty 0 = 0 + 0
c [basicprobe-2-0] 4245 probes remain 8% after last round
c [basicprobe-2-0] removed 0 variables, found 1294 hbrs
c p    3.3   52455   236943       433     368  10258   625  23  9.2 869.0   26
c [cgrclsr-2] limit 100000 penalty 1 = 1 + 0
c [cgrclsr-2] all 52455 free variables schedulable
c [cgrclsr-2] fully completed congruence closure
c [lift-2] limit 250000 with penalty 1 = 1 + 0
c [lift-2] using 52426 probes 100%
c [lift-2] 52411 variables remain 100% (44 retained)
c [cliff-2] limit of 10000000 steps penalty 0 = 0 + 0
c [cliff-2] failed 0, lifted 0
c [unhide-2] limit 1000000 with penalty 0 = 0 + 0
c [unhide-2-2] 0 units, 0 failed, 1352 tauts, 0 hbrs, 563 literals
c u    3.9   52455   236936       433     368  10178   624  23  9.2 869.0   26
c [transred-3] limit 100000 with penalty 0 = 0 + 0
c t    3.9   52455   236933       433     368  10171   624  23  9.2 869.0   26
c [block-2] scheduling all variables this time
c [block-2] scheduled 52455 variables 100%
c [block-2] limit of 10000000 steps penalty 0 = 0 + 0
c [block-2] fully completed blocked clause elimination
c [block-2] transition to [ all 0 rem 0 ] state
c [block-2] eliminated 0 blocked clauses
c [cce-2] 49433 variables 94% will be scheduled this time
c [cce-2] limit of 10000000 steps penalty 0 = 0 + 0
c [cce-2] 48867 variables 93% remain to be tried next time
c [cce-2] transition to [ all 0 rem 1 ] state
c [cce-2] eliminated 324 covered clauses
c E    4.4   52455   236609       433     368  10533   624  23  9.2 869.0   21
c [elim-2] 43816 variables 84% will be scheduled this time
c [elim-2] scheduled 43816 variables 84%
c [elim-2] limit of 5000000 steps penalty 0 = 0 + 0
c [elim-2] 33772 variables 64% remain to be tried next time
c [elim-2] transition to [ all 0 rem 1 ] state
c [elim-2] eliminated 1060 = 2% variables out of 52455
c e    5.4   51395   236141       433     358   7469   624  23  9.2 869.0   21
c [phase-2] phase bias: 9 positive 69%, 4 negative 31%
c [simplification-2] removed 1060 variables 2%
c [simplification-2] limit increments divided by 2
c [simplification-2] arithmetic increase of conflict limit interval by 5000
c [simplification-2] new irredundant limit 2344965
c [simplification-2] new conflict limit 5766
c [simplification-2] simplification penalty reduced to 2
c R    5.6   51395   236141       984     842   7483   674   6  9.9 418.6   26
c -    5.7   51395   236141      1186     501   7495   703   4  9.0 432.1   26
c R    6.0   51395   236141      2275    1497   7521   763   6  9.5 344.0   26
c -    6.6   51395   236141      4066    1501   7595   947   5  7.8 262.8   26
c 1    6.6   51395   236141      4328    1755   7595   954   6  7.8 264.3   27
c 
c blkd: 2 bces, 4800 removed, 1405100 resolutions, 3919016 steps
c blkd: 4800 blocking literals 1%, 0 pure
c cces: 2 cces, 391 eliminated, 391 ate 100%, 0 abce 0%
c cces: 12960 probed, 1 lifted, 1 failed
c clff: 2 cliffs, 3 lifted, 0 failed
c clff: 8869 decisions, 20001720 steps
c clls: 1 sat, 0 simp, 0 freeze, 0 melt
c clls: 2217211 add, 0 assume,, 0 deref, 0 failed
c clls: 0 cassume, 0 mosat
c coll: 14 gcs, 0 rescored clauses
c cgrs: 2 count, 300006 esteps, 75301 csteps
c cgrs: 0 eqs, 0 units
c cgrs: 0 matched (0 ands 0%, 0 xors 0%, 0 ites 0%)
c cgrs: 0 simplified (0 ands 0%, 0 xors 0%, 0 ites 0%)
c cgrs: 2152 extracted (1815 ands 84%, 337 xors 16%, 0 ites 0%)
c dcps: 2 decompositions, 69133 equivalent 30%
c decs: 68837 decision, 67 random 0.097%
c decs: 15673 flipped 22.768% (in 30 phases)
c elms: 2 elims, 7406 eliminated 3%
c elms: 7406 small 100%, 0 large 0%
c elms: 25091 tried small, 7406 succeeded 30%, 17685 failed 70%
c elms: 0 subsumed, 0 strengthened, 0 blocked
c elms: 316067 copies, 221649 resolutions, 648056 ipos
c elms: 0 subchks, 0 strchks
c frcs: 0 computed, 29.5 - 70.5 average min-cut range
c gaus: 2 extractions, 167993 extracted, 2.0 size, 3 max
c gaus: exported 0 units, 0 binary and 0 ternary equations
c gaus: 0 gc, 6000118 steps, 3000059 extr 50%, 2250547 elim 38%
c glue: 7.9 avg, 2.8 scaled avg
c glue: 0 maxredglue=15 (0%)
c lift: 2 phases, 270 probed (90 level1 33%, 180 level2 67%)
c lift: 0 units, 0 equivalences, 0 implications
c hbrs: 29133 hbrs = 29133 trn 100% + 0 lrg 0%, 0 sub 0%
c lrnd: 4287 clauses, 2611 uips 61%, 41.3 length, 7.9 glue
c ints: 254 luby (28439 steps), 0 inout (0 steps)
c mins: 177117 learned lits, 4% minimized
c move: moved 5191, 391 binary 8%, 4800 ternary 92%
c otfs: str 151 dyn (119 red, 32 irr) 41 drv 27%, 110 rst 73%
c otfs: sub 0 dyn (0 red, 0 irr)
c phas: 2 computed, 11505 set, 1621 pos (14%), 9884 neg (86%)
c prbs: 2 basic, 2251 probed, 1 failed, 0 lifted
c prps: 15166828 props, 120 props/dec
c prps: 54% srch, 46% simp, 0% lkhd
c psns: 658303 searches, 126049 hits, 19% hit rate
c queu: 18565 new, 7169 del, 120 maximum priority
c queu: 11376 merged, 1810 collected, 2 gcs
c queu: 4438 deprioritized, 25.3 lines on average
c reds: 2 count, 0 reset, 2 acts 100%, 0 exp 0%
c reds: 2 arithmetic 100%, 2 double 100%
c rmbd: 7 removed, 0 red 0%
c rsts: 210 restarts 83%, 43 skipped 17%
c rsts: 38 kept 18.1% average 39.4%
c simp: 2 count (0 ilim 0%, 0 plim 0%, 2 clim 100%)
c trnr: 2 count, 0 bin, 6 trn, 4961130 steps
c tops: 104677 fixed 45%, 0 iterations
c trds: 4 transitive reductions, 20 removed, 0 failed
c trds: 254 nodes, 339 edges, 200940 steps
c unhd: 2 count, 2 rounds, 2495781 steps
c unhd: 0 non-trivial sccs of average size 0.0
c unhd: 0 units, 0 bin, 0 trn, 0 lrg
c unhd: 1 failed, 1 stamp, 0 lits, 0 bin, 0 trn, 0 lrg
c unhd: 21512 tauts, 0 bin 0%, 0 trn 0%, 0 lrg 0%
c unhd: 21512 tauts, 21512 stamp 100%, 1352 red 6%
c unhd: 0 hbrs, 0 trn 0%, 0 lrg 0%, 0 red 0%
c unhd: 625 strd, 0 bin 0%, 1 trn 0%, 624 lrg 100%, 625 red 100%
c vars: 51395 remaining 22% and 181216 removed 78% out of 232611
c vars: 104677 fixed 45%, 7406 eliminated 3%, 69133 equivalent 30%
c vsts: 71356405 visits, 56% srch, 44% simp, 0% lkhd
c vsts: 4.9 search visits per propagation 9283.1 per conflict
c wchs: 8584243 pushed, 3816869 enlarged, 22 defrags
c 
c scaledglue  added       reduced       forcing      resolved     conflicts
c 
c all      3846 100      2001 100     15662 100      7927 100       614 100
c 
c  0          0   0         0   0         0   0         0   0         0   0 
c  1         44   1        21   1       182   1        77   1         4   1 
c  2       1378  36       804  40      5998  38      2473  31       175  29 
c  3       1324  34<      627  31<     6821  44<     3107  39<      250  41<
c  4        669  17       263  13      1789  11      1437  18       122  20 
c  5        280   7       155   8       675   4       557   7        40   7 
c  6         84   2        73   4       113   1       147   2        11   2 
c  7         43   1        37   2        55   0        85   1         9   1 
c  8         16   0        14   1        20   0        30   0         2   0 
c  9          1   0         1   0         1   0         1   0         0   0 
c 10          7   0         6   0         8   0        13   0         1   0 
c 11          0   0         0   0         0   0         0   0         0   0 
c 12          0   0         0   0         0   0         0   0         0   0 
c 13          0   0         0   0         0   0         0   0         0   0 
c 14          0   0         0   0         0   0         0   0         0   0 
c 15          0   0         0   0         0   0         0   0         0   0 
c 
c avg             3.1           3.1           2.8           3.1           3.2
c std             1.2           1.4           0.9           1.1           1.1
c 
c 68837 decisions, 4328 conflicts, 650.2 conflicts/sec
c 15166828 propagations, 2.3 megaprops/sec
c 6.7 seconds, 49.0 MB
c 
c    0.184   3% analysis
c    0.300   5% block
c    0.012   0% bump
c    0.000   0% card
c    0.712  11% cce
c    0.656  10% cliff
c    0.016   0% cutwidth
c    0.044   1% decide
c    0.000   0% force
c    0.612   9% gc
c    0.224   3% cgrclsr
c    0.224   3% decomp
c    0.160   2% defrag
c    1.876  28% elim
c    0.608   9% gauss
c    0.176   3% lift
c    0.056   1% mincls
c    0.048   1% phase
c    0.108   2% probe
c    0.008   0% reduce
c    0.024   0% restart
c    0.080   1% ternres
c    0.012   0% transred
c    0.224   3% unhide
c ==================================
c    0.016   0% preprocessing     0%
c    5.336  80% inprocessing    100%
c ==================================
c    5.352  80% simplifying
c    0.000   0% lookahead
c    1.296  19% search
c ==================================
c    6.656 100% all
c
s SATISFIABLE
